NAME : pr76.opt.tour
COMMENT : 108794.221853987  #   Population: 100   Iteration: 2000   Elitism Ratio: 0.2   Mutation Ratio: 0.15   Crossover Ratio: 0.95
TYPE : TOUR
DIMENSION : 76
TOUR_SECTION
1
23
22
21
25
24
46
45
44
48
47
69
68
70
67
50
49
51
66
65
71
72
73
64
63
57
62
61
59
60
41
40
58
56
55
52
53
54
42
43
28
27
26
20
19
31
30
29
32
33
35
34
39
38
36
37
18
17
16
15
74
14
13
12
11
10
9
8
7
6
5
4
3
2
75
76
-1
EOF
